
Gurobi 6.5.2 (linux64) logging started Wed Aug 31 10:35:26 2016

Optimize a model with 41 rows, 153 columns and 351 nonzeros
Coefficient statistics:
  Matrix range    [1e+00, 2e+00]
  Objective range [2e+00, 1e+02]
  Bounds range    [1e+00, 1e+00]
  RHS range       [1e+00, 1e+00]
Found heuristic solution: objective 609
Presolve removed 14 rows and 3 columns
Presolve time: 0.00s
Presolved: 27 rows, 150 columns, 303 nonzeros
Variable types: 0 continuous, 150 integer (150 binary)

Root relaxation: objective 2.890000e+02, 28 iterations, 0.00 seconds

    Nodes    |    Current Node    |     Objective Bounds      |     Work
 Expl Unexpl |  Obj  Depth IntInf | Incumbent    BestBd   Gap | It/Node Time

     0     0  289.00000    0    8  609.00000  289.00000  52.5%     -    0s
H    0     0                     427.0000000  289.00000  32.3%     -    0s
H    0     0                     405.0000000  289.00000  28.6%     -    0s
H    0     0                     326.0000000  289.00000  11.3%     -    0s
H    0     0                     325.0000000  289.00000  11.1%     -    0s
     0     0  310.75000    0   12  325.00000  310.75000  4.38%     -    0s
     0     0  310.75000    0    8  325.00000  310.75000  4.38%     -    0s
     0     0  312.00000    0   12  325.00000  312.00000  4.00%     -    0s
H    0     0                     322.0000000  312.00000  3.11%     -    0s
     0     0     cutoff    0       322.00000  321.00032  0.31%     -    0s

Cutting planes:
  Gomory: 6
  Cover: 18
  Clique: 6
  MIR: 1

Explored 0 nodes (85 simplex iterations) in 0.01 seconds
Thread count was 8 (of 8 available processors)

Optimal solution found (tolerance 1.00e-04)
Best objective 3.220000000000e+02, best bound 3.220000000000e+02, gap 0.0%
